53128090235928854235014,2,1,2,07,5,1,2,015,7,1,2,011,5,1,2,04,12,1,2,014,4,1,2,02,9,1,2,015,6,1,2,02,2,1,2,02,13,1,2,07,8,1,2,06,9,1,2,012,6,1,2,06,12,1,2,07,10,1,2,09,9,1,2,09,2,1,2,02,9,1,2,06,5,1,2,05,2,1,2,02,9,1,2,012,15,1,2,015,1,1,2,06,9,1,2,08,6,1,2,012,2,1,2,04,14,1,2,015,6,1,2,07,3,1,2,014,1,1,2,04,15,1,2,010,5,1,2,09,4,1,2,03,10,1,2,05,3,1,2,011,2,1,2,07,15,1,2,011,9,1,2,02,1,1,2,06,10,1,2,04,6,1,2,013,10,1,2,010,7,1,2,08,5,1,2,06,6,1,2,013,6,1,2,01,14,1,2,014,2,1,2,013,9,1,2,07,12,1,2,0